Primitive Cell                          
   1.00000000000000     
     2.4671959893848028    0.0000000000000026    0.0000000000000000
    -1.2335979946923992    2.1366544029223520   -0.0000000000000000
    -0.0000000000000000   -0.0000000000000000    8.2941960923892744
   C 
     2
Direct
  0.6666666666666643  0.3333333333333357  0.5000000000000000
  0.3333333333333357  0.6666666666666643  0.5000000000000000
 
  0.00000000E+00  0.00000000E+00  0.00000000E+00
  0.00000000E+00  0.00000000E+00  0.00000000E+00
